unsat
(:cnf-encoding-aux-vars 7
 :elim-unconstrained    3
 :max-memory            18.83
 :memory                18.53
 :nlsat-arith-var       6
 :nlsat-atoms           50
 :nlsat-bool-var        13
 :nlsat-clauses         79
 :nlsat-conflicts       3
 :nlsat-decisions       13
 :nlsat-propagations    20
 :num-allocs            124130
 :rlimit-count          20360
 :solve-eqs-elim-vars   30
 :solve-eqs-steps       52
 :time                  0.01
 :total-time            0.03)
